p cnf 150 756
1 -76 -58 0
-1 76 -58 0
1 76 -59 0
-1 -76 -59 0
20 -76 -64 0
-20 76 -64 0
20 76 -65 0
-20 -76 -65 0
39 -76 -70 0
-39 76 -70 0
39 76 -71 0
-39 -76 -71 0
2 -77 -58 0
-2 77 -58 0
2 77 -59 0
-2 -77 -59 0
21 -77 -64 0
-21 77 -64 0
21 77 -65 0
-21 -77 -65 0
40 -77 -70 0
-40 77 -70 0
40 77 -71 0
-40 -77 -71 0
3 -58 0
3 -59 0
58 -58 0
59 -59 0
22 -64 0
22 -65 0
64 -64 0
65 -65 0
41 -70 0
41 -71 0
70 -70 0
71 -71 0
4 -58 0
4 -59 0
58 -58 0
59 -59 0
23 -64 0
23 -65 0
64 -64 0
65 -65 0
42 -70 0
42 -71 0
70 -70 0
71 -71 0
5 -58 0
5 -59 0
58 -58 0
59 -59 0
24 -64 0
24 -65 0
64 -64 0
65 -65 0
43 -70 0
43 -71 0
70 -70 0
71 -71 0
6 -78 -58 0
-6 78 -58 0
6 78 -59 0
-6 -78 -59 0
25 -78 -64 0
-25 78 -64 0
25 78 -65 0
-25 -78 -65 0
44 -78 -70 0
-44 78 -70 0
44 78 -71 0
-44 -78 -71 0
7 -79 -58 0
-7 79 -58 0
7 79 -59 0
-7 -79 -59 0
26 -79 -64 0
-26 79 -64 0
26 79 -65 0
-26 -79 -65 0
45 -79 -70 0
-45 79 -70 0
45 79 -71 0
-45 -79 -71 0
8 -80 -58 0
-8 80 -58 0
8 80 -59 0
-8 -80 -59 0
27 -80 -64 0
-27 80 -64 0
27 80 -65 0
-27 -80 -65 0
46 -80 -70 0
-46 80 -70 0
46 80 -71 0
-46 -80 -71 0
9 -58 0
9 -59 0
58 -58 0
59 -59 0
28 -64 0
28 -65 0
64 -64 0
65 -65 0
47 -70 0
47 -71 0
70 -70 0
71 -71 0
10 -81 -58 0
-10 81 -58 0
10 81 -59 0
-10 -81 -59 0
29 -81 -64 0
-29 81 -64 0
29 81 -65 0
-29 -81 -65 0
48 -81 -70 0
-48 81 -70 0
48 81 -71 0
-48 -81 -71 0
11 -82 -58 0
-11 82 -58 0
11 82 -59 0
-11 -82 -59 0
30 -82 -64 0
-30 82 -64 0
30 82 -65 0
-30 -82 -65 0
49 -82 -70 0
-49 82 -70 0
49 82 -71 0
-49 -82 -71 0
12 -83 -58 0
-12 83 -58 0
12 83 -59 0
-12 -83 -59 0
31 -83 -64 0
-31 83 -64 0
31 83 -65 0
-31 -83 -65 0
50 -83 -70 0
-50 83 -70 0
50 83 -71 0
-50 -83 -71 0
13 -84 -58 0
-13 84 -58 0
13 84 -59 0
-13 -84 -59 0
32 -84 -64 0
-32 84 -64 0
32 84 -65 0
-32 -84 -65 0
51 -84 -70 0
-51 84 -70 0
51 84 -71 0
-51 -84 -71 0
14 -58 0
14 -59 0
58 -58 0
59 -59 0
33 -64 0
33 -65 0
64 -64 0
65 -65 0
52 -70 0
52 -71 0
70 -70 0
71 -71 0
15 -85 -58 0
-15 85 -58 0
15 85 -59 0
-15 -85 -59 0
34 -85 -64 0
-34 85 -64 0
34 85 -65 0
-34 -85 -65 0
53 -85 -70 0
-53 85 -70 0
53 85 -71 0
-53 -85 -71 0
16 -86 -58 0
-16 86 -58 0
16 86 -59 0
-16 -86 -59 0
35 -86 -64 0
-35 86 -64 0
35 86 -65 0
-35 -86 -65 0
54 -86 -70 0
-54 86 -70 0
54 86 -71 0
-54 -86 -71 0
17 -58 0
17 -59 0
58 -58 0
59 -59 0
36 -64 0
36 -65 0
64 -64 0
65 -65 0
55 -70 0
55 -71 0
70 -70 0
71 -71 0
18 -87 -58 0
-18 87 -58 0
18 87 -59 0
-18 -87 -59 0
37 -87 -64 0
-37 87 -64 0
37 87 -65 0
-37 -87 -65 0
56 -87 -70 0
-56 87 -70 0
56 87 -71 0
-56 -87 -71 0
19 -88 -58 0
-19 88 -58 0
19 88 -59 0
-19 -88 -59 0
38 -88 -64 0
-38 88 -64 0
38 88 -65 0
-38 -88 -65 0
57 -88 -70 0
-57 88 -70 0
57 88 -71 0
-57 -88 -71 0
-133 58 0
133 -58 0
-134 59 0
133 -59 0
-133 -58 0
-134 -59 0
-139 58 133 0
139 -58 0
139 -133 0
-140 59 134 0
140 -59 0
140 -134 0
-139 -64 0
-140 -65 0
-145 64 139 0
145 -64 0
145 -139 0
-146 65 140 0
146 -65 0
146 -140 0
-145 -70 0
-146 -71 0
145 0
146 0
1 -60 0
1 -61 0
60 -60 0
61 -61 0
20 -66 0
20 -67 0
66 -66 0
67 -67 0
39 -72 0
39 -73 0
72 -72 0
73 -73 0
2 -60 0
2 -61 0
60 -60 0
61 -61 0
21 -66 0
21 -67 0
66 -66 0
67 -67 0
40 -72 0
40 -73 0
72 -72 0
73 -73 0
3 -60 0
3 -61 0
60 -60 0
61 -61 0
22 -66 0
22 -67 0
66 -66 0
67 -67 0
41 -72 0
41 -73 0
72 -72 0
73 -73 0
4 -60 0
4 -61 0
60 -60 0
61 -61 0
23 -66 0
23 -67 0
66 -66 0
67 -67 0
42 -72 0
42 -73 0
72 -72 0
73 -73 0
5 -60 0
5 -61 0
60 -60 0
61 -61 0
24 -66 0
24 -67 0
66 -66 0
67 -67 0
43 -72 0
43 -73 0
72 -72 0
73 -73 0
6 -60 0
6 -61 0
60 -60 0
61 -61 0
25 -66 0
25 -67 0
66 -66 0
67 -67 0
44 -72 0
44 -73 0
72 -72 0
73 -73 0
7 -60 0
7 -61 0
60 -60 0
61 -61 0
26 -66 0
26 -67 0
66 -66 0
67 -67 0
45 -72 0
45 -73 0
72 -72 0
73 -73 0
8 -60 0
8 -61 0
60 -60 0
61 -61 0
27 -66 0
27 -67 0
66 -66 0
67 -67 0
46 -72 0
46 -73 0
72 -72 0
73 -73 0
9 -60 0
9 -61 0
60 -60 0
61 -61 0
28 -66 0
28 -67 0
66 -66 0
67 -67 0
47 -72 0
47 -73 0
72 -72 0
73 -73 0
-10 -60 0
-10 -61 0
60 -60 0
61 -61 0
-29 -66 0
-29 -67 0
66 -66 0
67 -67 0
-48 -72 0
-48 -73 0
72 -72 0
73 -73 0
-11 -60 0
-11 -61 0
60 -60 0
61 -61 0
-30 -66 0
-30 -67 0
66 -66 0
67 -67 0
-49 -72 0
-49 -73 0
72 -72 0
73 -73 0
12 -60 0
12 -61 0
60 -60 0
61 -61 0
31 -66 0
31 -67 0
66 -66 0
67 -67 0
50 -72 0
50 -73 0
72 -72 0
73 -73 0
-13 -60 0
-13 -61 0
60 -60 0
61 -61 0
-32 -66 0
-32 -67 0
66 -66 0
67 -67 0
-51 -72 0
-51 -73 0
72 -72 0
73 -73 0
14 -60 0
14 -61 0
60 -60 0
61 -61 0
33 -66 0
33 -67 0
66 -66 0
67 -67 0
52 -72 0
52 -73 0
72 -72 0
73 -73 0
-15 -60 0
-15 -61 0
60 -60 0
61 -61 0
-34 -66 0
-34 -67 0
66 -66 0
67 -67 0
-53 -72 0
-53 -73 0
72 -72 0
73 -73 0
-16 -60 0
-16 -61 0
60 -60 0
61 -61 0
-35 -66 0
-35 -67 0
66 -66 0
67 -67 0
-54 -72 0
-54 -73 0
72 -72 0
73 -73 0
17 -60 0
17 -61 0
60 -60 0
61 -61 0
36 -66 0
36 -67 0
66 -66 0
67 -67 0
55 -72 0
55 -73 0
72 -72 0
73 -73 0
-18 -60 0
-18 -61 0
60 -60 0
61 -61 0
-37 -66 0
-37 -67 0
66 -66 0
67 -67 0
-56 -72 0
-56 -73 0
72 -72 0
73 -73 0
-19 -60 0
-19 -61 0
60 -60 0
61 -61 0
-38 -66 0
-38 -67 0
66 -66 0
67 -67 0
-57 -72 0
-57 -73 0
72 -72 0
73 -73 0
-135 60 0
135 -60 0
-136 61 0
135 -61 0
-135 -60 0
-136 -61 0
-141 60 135 0
141 -60 0
141 -135 0
-142 61 136 0
142 -61 0
142 -136 0
-141 -66 0
-142 -67 0
-147 66 141 0
147 -66 0
147 -141 0
-148 67 142 0
148 -67 0
148 -142 0
-147 -72 0
-148 -73 0
147 0
148 0
1 -89 -62 0
-1 89 -62 0
1 89 -63 0
-1 -89 -63 0
20 -89 -68 0
-20 89 -68 0
20 89 -69 0
-20 -89 -69 0
39 -89 -74 0
-39 89 -74 0
39 89 -75 0
-39 -89 -75 0
2 -90 -62 0
-2 90 -62 0
2 90 -63 0
-2 -90 -63 0
21 -90 -68 0
-21 90 -68 0
21 90 -69 0
-21 -90 -69 0
40 -90 -74 0
-40 90 -74 0
40 90 -75 0
-40 -90 -75 0
3 -62 0
3 -63 0
62 -62 0
63 -63 0
22 -68 0
22 -69 0
68 -68 0
69 -69 0
41 -74 0
41 -75 0
74 -74 0
75 -75 0
4 -91 -62 0
-4 91 -62 0
4 91 -63 0
-4 -91 -63 0
23 -91 -68 0
-23 91 -68 0
23 91 -69 0
-23 -91 -69 0
42 -91 -74 0
-42 91 -74 0
42 91 -75 0
-42 -91 -75 0
5 -62 0
5 -63 0
62 -62 0
63 -63 0
24 -68 0
24 -69 0
68 -68 0
69 -69 0
43 -74 0
43 -75 0
74 -74 0
75 -75 0
6 -92 -62 0
-6 92 -62 0
6 92 -63 0
-6 -92 -63 0
25 -92 -68 0
-25 92 -68 0
25 92 -69 0
-25 -92 -69 0
44 -92 -74 0
-44 92 -74 0
44 92 -75 0
-44 -92 -75 0
7 -93 -62 0
-7 93 -62 0
7 93 -63 0
-7 -93 -63 0
26 -93 -68 0
-26 93 -68 0
26 93 -69 0
-26 -93 -69 0
45 -93 -74 0
-45 93 -74 0
45 93 -75 0
-45 -93 -75 0
8 -94 -62 0
-8 94 -62 0
8 94 -63 0
-8 -94 -63 0
27 -94 -68 0
-27 94 -68 0
27 94 -69 0
-27 -94 -69 0
46 -94 -74 0
-46 94 -74 0
46 94 -75 0
-46 -94 -75 0
9 -62 0
9 -63 0
62 -62 0
63 -63 0
28 -68 0
28 -69 0
68 -68 0
69 -69 0
47 -74 0
47 -75 0
74 -74 0
75 -75 0
10 -95 -62 0
-10 95 -62 0
10 95 -63 0
-10 -95 -63 0
29 -95 -68 0
-29 95 -68 0
29 95 -69 0
-29 -95 -69 0
48 -95 -74 0
-48 95 -74 0
48 95 -75 0
-48 -95 -75 0
11 -96 -62 0
-11 96 -62 0
11 96 -63 0
-11 -96 -63 0
30 -96 -68 0
-30 96 -68 0
30 96 -69 0
-30 -96 -69 0
49 -96 -74 0
-49 96 -74 0
49 96 -75 0
-49 -96 -75 0
12 -97 -62 0
-12 97 -62 0
12 97 -63 0
-12 -97 -63 0
31 -97 -68 0
-31 97 -68 0
31 97 -69 0
-31 -97 -69 0
50 -97 -74 0
-50 97 -74 0
50 97 -75 0
-50 -97 -75 0
13 -98 -62 0
-13 98 -62 0
13 98 -63 0
-13 -98 -63 0
32 -98 -68 0
-32 98 -68 0
32 98 -69 0
-32 -98 -69 0
51 -98 -74 0
-51 98 -74 0
51 98 -75 0
-51 -98 -75 0
14 -62 0
14 -63 0
62 -62 0
63 -63 0
33 -68 0
33 -69 0
68 -68 0
69 -69 0
52 -74 0
52 -75 0
74 -74 0
75 -75 0
15 -99 -62 0
-15 99 -62 0
15 99 -63 0
-15 -99 -63 0
34 -99 -68 0
-34 99 -68 0
34 99 -69 0
-34 -99 -69 0
53 -99 -74 0
-53 99 -74 0
53 99 -75 0
-53 -99 -75 0
16 -100 -62 0
-16 100 -62 0
16 100 -63 0
-16 -100 -63 0
35 -100 -68 0
-35 100 -68 0
35 100 -69 0
-35 -100 -69 0
54 -100 -74 0
-54 100 -74 0
54 100 -75 0
-54 -100 -75 0
17 -62 0
17 -63 0
62 -62 0
63 -63 0
36 -68 0
36 -69 0
68 -68 0
69 -69 0
55 -74 0
55 -75 0
74 -74 0
75 -75 0
18 -101 -62 0
-18 101 -62 0
18 101 -63 0
-18 -101 -63 0
37 -101 -68 0
-37 101 -68 0
37 101 -69 0
-37 -101 -69 0
56 -101 -74 0
-56 101 -74 0
56 101 -75 0
-56 -101 -75 0
19 -102 -62 0
-19 102 -62 0
19 102 -63 0
-19 -102 -63 0
38 -102 -68 0
-38 102 -68 0
38 102 -69 0
-38 -102 -69 0
57 -102 -74 0
-57 102 -74 0
57 102 -75 0
-57 -102 -75 0
-137 62 0
137 -62 0
-138 63 0
137 -63 0
-137 -62 0
-138 -63 0
-143 62 137 0
143 -62 0
143 -137 0
-144 63 138 0
144 -63 0
144 -138 0
-143 -68 0
-144 -69 0
-149 68 143 0
149 -68 0
149 -143 0
-150 69 144 0
150 -69 0
150 -144 0
-149 -74 0
-150 -75 0
149 0
150 0
